c Reduced graph for R75_1gb generated by Cyril Grelier
p edge 70 251
e 1 4
e 1 19
e 1 22
e 1 38
e 1 43
e 1 45
e 1 49
e 1 50
e 1 59
e 2 16
e 2 20
e 2 21
e 2 23
e 2 25
e 2 43
e 2 52
e 2 55
e 2 70
e 3 8
e 3 11
e 3 16
e 3 22
e 3 24
e 3 27
e 3 30
e 3 35
e 3 39
e 3 60
e 3 68
e 3 70
e 4 25
e 4 36
e 4 50
e 4 52
e 4 56
e 5 10
e 5 16
e 5 33
e 5 35
e 5 64
e 5 68
e 6 46
e 6 54
e 6 56
e 7 16
e 7 26
e 7 27
e 7 37
e 7 38
e 7 42
e 7 67
e 7 69
e 7 70
e 8 11
e 8 28
e 8 30
e 8 34
e 8 38
e 8 40
e 8 50
e 8 62
e 9 15
e 9 40
e 9 45
e 9 49
e 9 50
e 9 62
e 9 65
e 10 16
e 10 26
e 10 33
e 10 56
e 10 57
e 10 61
e 11 19
e 11 24
e 11 31
e 11 38
e 11 45
e 11 55
e 12 13
e 12 15
e 12 22
e 12 26
e 12 35
e 12 57
e 12 61
e 13 41
e 13 56
e 13 60
e 13 61
e 13 64
e 13 67
e 14 15
e 14 18
e 14 42
e 14 48
e 15 27
e 15 33
e 15 35
e 15 36
e 15 45
e 15 53
e 15 56
e 15 62
e 16 20
e 16 45
e 16 48
e 16 52
e 16 66
e 17 21
e 17 28
e 17 32
e 17 45
e 17 49
e 17 52
e 17 56
e 17 59
e 17 65
e 18 19
e 18 20
e 18 23
e 18 35
e 18 42
e 18 67
e 18 69
e 19 23
e 19 32
e 19 50
e 19 53
e 19 66
e 20 29
e 20 50
e 20 59
e 20 63
e 20 64
e 21 33
e 21 34
e 21 43
e 21 47
e 21 48
e 22 30
e 22 41
e 22 67
e 23 26
e 23 48
e 24 29
e 24 37
e 24 38
e 25 32
e 25 36
e 25 38
e 25 39
e 25 40
e 25 49
e 25 50
e 26 32
e 26 33
e 26 49
e 26 64
e 27 42
e 27 56
e 27 62
e 27 65
e 28 34
e 28 40
e 28 60
e 29 31
e 29 34
e 29 36
e 29 44
e 29 47
e 29 60
e 29 68
e 29 69
e 30 33
e 30 34
e 30 49
e 30 59
e 31 39
e 31 41
e 31 53
e 31 65
e 32 58
e 33 38
e 33 45
e 33 67
e 33 68
e 34 36
e 34 47
e 34 51
e 34 63
e 34 69
e 35 45
e 35 51
e 35 52
e 35 54
e 35 64
e 36 56
e 36 59
e 36 67
e 37 50
e 37 51
e 37 58
e 37 62
e 37 66
e 38 56
e 38 61
e 39 41
e 39 48
e 39 55
e 40 47
e 40 51
e 40 53
e 40 55
e 40 59
e 41 46
e 41 49
e 41 59
e 42 44
e 42 65
e 43 48
e 43 50
e 43 64
e 44 47
e 44 55
e 44 59
e 46 57
e 46 70
e 47 49
e 47 51
e 47 52
e 47 54
e 48 66
e 49 62
e 49 64
e 51 57
e 51 60
e 51 70
e 52 61
e 53 55
e 53 65
e 54 60
e 55 65
e 55 67
e 56 58
e 56 59
e 59 60
e 59 67
e 61 68
e 68 69
